NAME: PointSet_Angle_40_6
TYPE: TSP
COMMENT: Points chosen discrete uniformly at random out of ${0, \ldots, 500}^2$.
DIMENSION: 40
EDGE_WEIGHT_TYPE: EUC_2D
NODE_COORD_SECTION
1 177 427
2 251 24
3 401 152
4 261 115
5 37 174
6 425 364
7 421 464
8 72 498
9 62 156
10 11 109
11 45 238
12 266 162
13 89 107
14 132 36
15 494 182
16 188 417
17 109 439
18 187 256
19 91 194
20 118 375
21 369 42
22 238 35
23 252 56
24 32 315
25 212 291
26 424 257
27 28 189
28 166 117
29 297 298
30 400 36
31 481 87
32 453 336
33 272 386
34 91 363
35 79 456
36 237 194
37 245 221
38 230 497
39 23 8
40 311 482
EOF
